p cnf 127 342
c ind 111 113 117 119 125 115 123 108 121 106 0
c ind 124 109 105 122 104 107 112 114 98 102 0
c ind 110 118 116 101 103 120 97 99 100 1 0
c ret 65 74 75 76 77 78 79 80 81 82 0
c ret 83 66 84 85 86 87 88 89 90 91 0
c ret 92 93 67 94 95 96 68 69 70 71 0
c ret 72 73 0
2 3 -41 -46 -57 0
-2 -3 0
-2 57 0
-2 46 0
-2 41 0
3 4 -17 -28 -32 0
-3 -4 0
-3 32 0
-3 28 0
-3 17 0
4 -5 10 11 -12 0
-4 12 0
-4 -11 0
-4 5 0
-4 -10 0
5 6 7 8 9 0
-5 -9 0
-5 -8 0
-5 -6 0
-5 -7 0
6 -75 95 -105 122 0
6 75 -95 105 -122 0
6 75 95 105 122 0
6 -75 -95 -105 -122 0
-6 -75 105 0
-6 75 -105 0
-6 95 -122 0
-6 -95 122 0
7 -75 95 -106 124 0
7 75 -95 106 -124 0
7 75 95 106 124 0
7 -75 -95 -106 -124 0
-7 -75 106 0
-7 75 -106 0
-7 95 -124 0
-7 -95 124 0
8 -75 95 -102 116 0
8 75 -95 102 -116 0
8 75 95 102 116 0
8 -75 -95 -102 -116 0
-8 -75 102 0
-8 75 -102 0
-8 95 -116 0
-8 -95 116 0
9 -75 95 -103 118 0
9 75 -95 103 -118 0
9 75 95 103 118 0
9 -75 -95 -103 -118 0
-9 -75 103 0
-9 75 -103 0
-9 95 -118 0
-9 -95 118 0
10 -75 95 -101 114 0
10 75 -95 101 -114 0
10 75 95 101 114 0
10 -75 -95 -101 -114 0
-10 -75 101 0
-10 75 -101 0
-10 95 -114 0
-10 -95 114 0
11 -75 95 -104 120 0
11 75 -95 104 -120 0
11 75 95 104 120 0
11 -75 -95 -104 -120 0
-11 -75 104 0
-11 75 -104 0
-11 95 -120 0
-11 -95 120 0
12 13 14 15 16 0
-12 -16 0
-12 -15 0
-12 -13 0
-12 -14 0
13 -75 95 -98 107 0
13 75 -95 98 -107 0
13 75 95 98 107 0
13 -75 -95 -98 -107 0
-13 -75 98 0
-13 75 -98 0
-13 95 -107 0
-13 -95 107 0
14 -75 95 -100 112 0
14 75 -95 100 -112 0
14 75 95 100 112 0
14 -75 -95 -100 -112 0
-14 -75 100 0
-14 75 -100 0
-14 95 -112 0
-14 -95 112 0
15 -75 95 -97 109 0
15 75 -95 97 -109 0
15 75 95 97 109 0
15 -75 -95 -97 -109 0
-15 -75 97 0
-15 75 -97 0
-15 95 -109 0
-15 -95 109 0
16 -75 95 -99 110 0
16 75 -95 99 -110 0
16 75 95 99 110 0
16 -75 -95 -99 -110 0
-16 -75 99 0
-16 75 -99 0
-16 95 -110 0
-16 -95 110 0
17 -18 -24 -25 118 0
17 -18 24 -25 -118 0
-17 25 0
-17 -24 -118 0
-17 18 0
-17 24 118 0
18 -19 22 -23 0
18 -19 22 -122 0
-18 19 0
-18 -22 0
-18 23 122 0
19 20 124 0
19 21 120 0
19 20 21 0
19 120 124 0
-19 -20 -120 0
-19 -21 -124 0
20 -103 121 0
20 118 121 0
-20 -121 0
-20 103 -118 0
21 -105 125 0
21 122 125 0
-21 -125 0
-21 105 -122 0
22 107 -108 0
22 97 107 -109 0
-22 -107 0
-22 -97 108 0
-22 108 109 0
23 -104 123 0
23 120 123 0
-23 -123 0
-23 104 -120 0
24 -102 119 0
24 116 119 0
-24 -119 0
-24 102 -116 0
25 -26 -27 97 98 0
-25 -97 0
-25 27 0
-25 26 0
-25 -98 0
26 103 104 105 106 0
-26 -106 0
-26 -105 0
-26 -103 0
-26 -104 0
27 99 100 101 102 0
-27 -102 0
-27 -101 0
-27 -99 0
-27 -100 0
23 28 -29 31 0
28 -29 31 122 0
-28 29 0
-28 -31 0
-23 -28 -122 0
29 30 -120 0
-20 29 116 0
29 116 -120 0
-20 29 30 0
-29 -30 -116 0
20 -29 120 0
30 -101 117 0
30 114 117 0
-30 -117 0
-30 101 -114 0
31 114 -115 0
31 100 -112 114 0
-31 -114 0
-31 -100 115 0
-31 112 115 0
32 -33 -36 -39 -40 0
-32 40 0
-32 33 0
-32 39 0
-32 36 0
33 35 -112 0
33 -34 110 0
33 110 -112 0
33 -34 35 0
-33 -35 -110 0
-33 34 112 0
34 -99 113 0
34 110 113 0
-34 -113 0
-34 99 -110 0
35 -98 111 0
35 107 111 0
-35 -111 0
-35 98 -107 0
36 37 114 0
36 38 107 0
36 37 38 0
36 107 114 0
-36 -37 -107 0
-36 -38 -114 0
37 108 109 0
37 -97 108 0
-37 -108 0
-37 97 -109 0
38 -100 115 0
38 112 115 0
-38 -115 0
-38 100 -112 0
-21 39 -116 0
-30 39 -124 0
39 -116 -124 0
-21 -30 39 0
21 -39 124 0
30 -39 116 0
34 40 -110 0
-35 40 112 0
34 -35 40 0
40 -110 112 0
-34 -40 -112 0
35 -40 110 0
41 -42 -43 87 0
41 42 -43 -87 0
-41 43 0
-41 42 87 0
-41 -42 -87 0
42 -70 88 0
42 85 88 0
-42 -88 0
-42 70 -85 0
43 44 -45 -81 93 0
43 -44 -45 81 93 0
43 -44 45 81 -93 0
43 44 45 -81 -93 0
-43 -44 -81 0
-43 44 81 0
-43 45 93 0
-43 -45 -93 0
44 -67 82 0
44 79 82 0
-44 -82 0
-44 67 -79 0
45 -73 94 0
45 91 94 0
-45 -94 0
-45 73 -91 0
46 -47 -54 55 95 0
46 -47 54 55 -95 0
-46 -55 0
-46 -54 -95 0
-46 47 0
-46 54 95 0
47 -48 -49 -50 -51 0
-47 51 0
-47 48 0
-47 50 0
-47 49 0
48 73 74 75 0
-48 -73 0
-48 -75 0
-48 -74 0
49 69 70 71 72 0
-49 -72 0
-49 -71 0
-49 -69 0
-49 -70 0
50 65 66 67 68 0
-50 -68 0
-50 -67 0
-50 -65 0
-50 -66 0
51 52 -76 0
51 -53 83 0
51 52 -53 0
51 -76 83 0
-51 -52 -83 0
-51 53 76 0
52 -68 84 0
52 81 84 0
-52 -84 0
-52 68 -81 0
53 77 78 0
53 -65 77 0
-53 -77 0
-53 65 -78 0
54 -74 96 0
54 93 96 0
-54 -96 0
-54 74 -93 0
55 -56 -89 0
55 56 89 0
-55 -56 89 0
-55 56 -89 0
56 -71 90 0
56 87 90 0
-56 -90 0
-56 71 -87 0
57 -58 -62 -64 79 0
57 -58 -62 64 -79 0
-57 58 0
-57 -64 -79 0
-57 62 0
-57 64 79 0
58 59 -60 61 85 0
58 59 60 61 -85 0
-58 -59 0
-58 -60 -85 0
-58 -61 0
-58 60 85 0
59 91 -92 0
59 72 -89 91 0
-59 -91 0
-59 -72 92 0
-59 89 92 0
60 -69 86 0
60 83 86 0
-60 -86 0
-60 69 -83 0
61 -65 -76 77 0
61 -76 77 78 0
-61 76 0
-61 -77 0
-61 65 -78 0
62 -83 91 0
-52 62 63 0
62 63 -83 0
-52 62 91 0
52 -62 83 0
-62 -63 -91 0
63 -72 92 0
63 89 92 0
-63 -92 0
-63 72 -89 0
64 -66 80 0
64 76 80 0
-64 -80 0
-64 66 -76 0
1 2 0
-1 -2 0
126 0

